NAME : mr25
COMMENT : 25-city problem (DISC)
TYPE : TSP
DIMENSION : 25
EDGE_WEIGHT_TYPE : EUC_2D
NODE_COORD_SECTION
1 88 56
2 59 4
3 28 72
4 19 43
5 42 44
6 12 29
7 69 91
8 44 67
9 56 46
10 37 29
11 41 53
12 12 56
13 45 75
14 59 83
15 17 83
16 53 8
17 33 65
18 70 31
19 37 53
20 84 96
21 49 89
22 52 30
23 39 52
24 100 9
25 52 65
EOF
